NAME: ../File/prFile/tspFile/tsp_file2.tsp
COMMENT: TSP file generated by Python
TYPE: TSP
DIMENSION: 30
EDGE_WEIGHT_TYPE: EUC_2D
NODE_COORD_SECTION
1 7 31
2 81 55
3 16 86
4 14 37
5 43 73
6 88 41
7 49 83
8 33 63
9 5 83
10 33 1
11 16 27
12 30 70
13 91 63
14 82 10
15 6 2
16 88 71
17 99 28
18 10 22
19 91 5
20 44 85
21 73 41
22 48 32
23 20 67
24 80 13
25 10 43
26 72 20
27 1 87
28 86 12
29 33 41
30 93 93
EOF
